500
    1   500   500
    2   418   418
    3   276   276
    4   151   151
    5    26    26
    6   168   168
    7    79    79
    8   244   244
    9   364   364
   10   146   146
   11    18    18
   12   165   165
   13   301   301
   14   466   466
   15   180   180
   16   452   452
   17   193   193
   18   347   347
   19   266   266
   20   303   303
   21   272   272
   22   271   271
   23   347   347
   24   299   299
   25   160   160
   26   259   259
   27   132   132
   28   370   370
   29   133   133
   30   431   431
   31   469   469
   32   444   444
   33   393   393
   34   182   182
   35   212   212
   36   174   174
   37   201   201
   38   223   223
   39   474   474
   40    58    58
   41   357   357
   42   350   350
   43   420   420
   44    11    11
   45   496   496
   46    92    92
   47   475   475
   48   288   288
   49     1     1
   50     1     1
   51   492   492
   52    43    43
   53   458   458
   54   312   312
   55   288   288
   56     8     8
   57   438   438
   58    98    98
   59   375   375
   60   437   437
   61   150   150
   62    33    33
   63   356   356
   64    88    88
   65    16    16
   66   352   352
   67    25    25
   68    19    19
   69   304   304
   70   388   388
   71    41    41
   72   121   121
   73   472   472
   74   221   221
   75   281   281
   76   335   335
   77   344   344
   78   211   211
   79   239   239
   80   312   312
   81   427   427
   82    64    64
   83   338   338
   84   394   394
   85   306   306
   86   486   486
   87   390   390
   88    47    47
   89   403   403
   90   287   287
   91   459   459
   92   223   223
   93   102   102
   94   125   125
   95   290   290
   96    69    69
   97   419   419
   98   325   325
   99    12    12
  100   414   414
  101   403   403
  102   147   147
  103   424   424
  104   407   407
  105   381   381
  106   295   295
  107   244   244
  108   221   221
  109   113   113
  110   100   100
  111   360   360
  112   318   318
  113    33    33
  114   115   115
  115    19    19
  116   192   192
  117   188   188
  118    56    56
  119   186   186
  120   319   319
  121   129   129
  122   196   196
  123   483   483
  124   290   290
  125   356   356
  126    54    54
  127   371   371
  128    14    14
  129   292   292
  130   159   159
  131   156   156
  132   201   201
  133   389   389
  134   481   481
  135   415   415
  136   142   142
  137   404   404
  138   361   361
  139     2     2
  140   166   166
  141    18    18
  142   405   405
  143    14    14
  144    51    51
  145    50    50
  146   189   189
  147   203   203
  148    78    78
  149    36    36
  150    63    63
  151   285   285
  152   182   182
  153   387   387
  154    86    86
  155    31    31
  156   241   241
  157   197   197
  158   180   180
  159   463   463
  160   372   372
  161   466   466
  162   227   227
  163   314   314
  164   454   454
  165   339   339
  166   110   110
  167   306   306
  168   142   142
  169   422   422
  170   221   221
  171   306   306
  172    65    65
  173    12    12
  174   262   262
  175   260   260
  176   443   443
  177   302   302
  178   440   440
  179   151   151
  180    79    79
  181   337   337
  182   474   474
  183    57    57
  184   358   358
  185   317   317
  186   154   154
  187   440   440
  188    81    81
  189    80    80
  190   320   320
  191   209   209
  192    11    11
  193   289   289
  194    37    37
  195   377   377
  196   328   328
  197   300   300
  198   377   377
  199   424   424
  200   317   317
  201   281   281
  202   189   189
  203    44    44
  204   450   450
  205   294   294
  206   183   183
  207   396   396
  208   262   262
  209   109   109
  210    19    19
  211    38    38
  212   351   351
  213   163   163
  214    78    78
  215    55    55
  216   485   485
  217   443   443
  218   210   210
  219   253   253
  220   341   341
  221   435   435
  222   162   162
  223   167   167
  224   426   426
  225   349   349
  226   490   490
  227   381   381
  228   184   184
  229   397   397
  230   290   290
  231    39    39
  232   469   469
  233   415   415
  234   187   187
  235   445   445
  236   361   361
  237   449   449
  238    26    26
  239   197   197
  240   415   415
  241   388   388
  242   234   234
  243   149   149
  244   219   219
  245    92    92
  246   394   394
  247     7     7
  248    55    55
  249   461   461
  250   164   164
  251   491   491
  252   477   477
  253   360   360
  254   141   141
  255   424   424
  256   330   330
  257   219   219
  258   424   424
  259    15    15
  260   261   261
  261   434   434
  262   375   375
  263   449   449
  264    15    15
  265   111   111
  266   308   308
  267   156   156
  268   315   315
  269    65    65
  270   198   198
  271   418   418
  272   464   464
  273   497   497
  274    49    49
  275   307   307
  276   106   106
  277   134   134
  278   303   303
  279   104   104
  280    70    70
  281   179   179
  282   254   254
  283   481   481
  284   469   469
  285    75    75
  286   230   230
  287   147   147
  288   188   188
  289   485   485
  290   108   108
  291    90    90
  292   495   495
  293   134   134
  294   453   453
  295   219   219
  296     7     7
  297   361   361
  298   177   177
  299   430   430
  300   207   207
  301   345   345
  302   317   317
  303   449   449
  304   339   339
  305   186   186
  306   408   408
  307   212   212
  308    12    12
  309    62    62
  310   401   401
  311   136   136
  312    20    20
  313    74    74
  314   494   494
  315   203   203
  316   277   277
  317   106   106
  318   340   340
  319   181   181
  320   465   465
  321   177   177
  322   147   147
  323   291   291
  324   322   322
  325   278   278
  326   142   142
  327   346   346
  328   345   345
  329   389   389
  330    61    61
  331   378   378
  332   493   493
  333   327   327
  334   319   319
  335   208   208
  336   184   184
  337   250   250
  338   154   154
  339   329   329
  340   253   253
  341    15    15
  342   367   367
  343   246   246
  344   238   238
  345   109   109
  346    86    86
  347   442   442
  348   402   402
  349   463   463
  350    27    27
  351   255   255
  352   152   152
  353   222   222
  354   319   319
  355   293   293
  356   474   474
  357   102   102
  358   242   242
  359    40    40
  360    81    81
  361   467   467
  362   127   127
  363   409   409
  364    50    50
  365   228   228
  366   361   361
  367   224   224
  368    81    81
  369   289   289
  370   425   425
  371   341   341
  372   186   186
  373    42    42
  374   253   253
  375   197   197
  376   108   108
  377   280   280
  378   220   220
  379   209   209
  380   139   139
  381    98    98
  382   113   113
  383   395   395
  384    36    36
  385   152   152
  386   486   486
  387    28    28
  388   300   300
  389   321   321
  390    40    40
  391   358   358
  392    26    26
  393   436   436
  394   381   381
  395   234   234
  396   164   164
  397   359   359
  398   279   279
  399    45    45
  400   412   412
  401   379   379
  402   408   408
  403   433   433
  404   134   134
  405   451   451
  406   492   492
  407   499   499
  408   194   194
  409   375   375
  410   246   246
  411    97    97
  412    29    29
  413   216   216
  414   331   331
  415   426   426
  416   320   320
  417   471   471
  418   302   302
  419   409   409
  420   319   319
  421    88    88
  422    89    89
  423   228   228
  424    73    73
  425   343   343
  426   297   297
  427   397   397
  428   257   257
  429   186   186
  430   272   272
  431   323   323
  432   303   303
  433   452   452
  434   487   487
  435   232   232
  436   453   453
  437   357   357
  438   164   164
  439    34    34
  440   183   183
  441   358   358
  442    78    78
  443   173   173
  444    75    75
  445    97    97
  446   364   364
  447   412   412
  448   361   361
  449   168   168
  450   137   137
  451   172   172
  452   364   364
  453   431   431
  454   368   368
  455    37    37
  456    90    90
  457    43    43
  458   301   301
  459   259   259
  460   193   193
  461   461   461
  462   372   372
  463   242   242
  464   459   459
  465    45    45
  466   190   190
  467   362   362
  468   216   216
  469   421   421
  470    32    32
  471   452   452
  472     9     9
  473   101   101
  474   291   291
  475   257   257
  476   353   353
  477   329   329
  478   414   414
  479   237   237
  480   387   387
  481   217   217
  482   217   217
  483   499   499
  484   285   285
  485   133   133
  486   346   346
  487   467   467
  488   444   444
  489   130   130
  490    16    16
  491    63    63
  492   482   482
  493   414   414
  494   364   364
  495   158   158
  496   287   287
  497   344   344
  498    21    21
  499   348   348
  500   366   366
42557
